benchmarks_vrp/CMT3/tsp_classic/CMT3_7.vrp
NAME: CMT3_7
TYPE: CVRP
COMMENT: 826.14 - Cluster Nr.7
DIMENSION: 11
CAPACITY: 200
EDGE_WEIGHT_TYPE: EUC_2D
NODE_COORD_TYPE: TWOD_COORDS
NODE_COORD_SECTION: 
11 65 55
2 62 77
4 63 65
6 35 35
7 55 60
8 49 58
3 40 60
9 55 54
10 49 73
5 57 68
1 45 65
DEPOT_SECTION: 
6
-1
DEMAND_SECTION: 
8 10
1 9
5 15
4 8
7 16
6 0
3 21
9 26
10 25
11 14
2 20
EOF
