benchmarks_vrp/CMT3/tsp_classic/CMT3_7.tour
NAME: CMT3_7 solution
TYPE: TOUR
TOUR_SECTION:
6 3 1 10 5 2 4 11 9 7 8 -1
-1
EOF